
  32    4
  10   10   10   10

   0   0   0   0   0   3 2 30 31 
   2  10  10  10  10   1 3 
   9  10  10  10  10   3 29 28 4 
   1  10  10  10  10   1 5 
   6  10  10  10  10   1 6 
   6  10  10  10  10   1 7 
   5  10  10  10  10   2 27 8 
   1  10  10  10  10   1 9 
   4  10  10  10  10   1 10 
  10  10  10  10  10   1 11 
   7  10  10  10  10   1 12 
   1  10  10  10  10   1 13 
   6  10  10  10  10   1 14 
  10  10  10  10  10   1 15 
   8  10  10  10  10   1 16 
   6  10  10  10  10   1 17 
   5  10  10  10  10   1 18 
   8  10  10  10  10   2 26 19 
   9  10  10  10  10   1 20 
   2  10  10  10  10   1 21 
   5  10  10  10  10   1 22 
   5  10  10  10  10   1 23 
   3  10  10  10  10   1 24 
   9  10  10  10  10   1 25 
   5  10  10  10  10   1 32
   8  10  10  10  10   1 32
   7  10  10  10  10   1 32
   1  10  10  10  10   1 32
   4  10  10  10  10   1 32
   5  10  10  10  10   1 32
   2  10  10  10  10   1 32
   0   0   0   0   0   0 
